Set parameter Username
Academic license - for non-commercial use only - expires 2024-10-29
Set parameter LazyConstraints to value 1
Set parameter TimeLimit to value 600
Gurobi Optimizer version 10.0.0 build v10.0.0rc2 (linux64)

CPU model: AMD FX(tm)-4300 Quad-Core Processor, instruction set [SSE2|AVX]
Thread count: 2 physical cores, 4 logical processors, using up to 4 threads

Optimize a model with 2625 rows, 625 columns and 2787 nonzeros
Model fingerprint: 0x0f803ba8
Variable types: 0 continuous, 625 integer (625 binary)
Coefficient statistics:
  Matrix range     [1e+00, 1e+00]
  Objective range  [1e+00, 1e+01]
  Bounds range     [1e+00, 1e+00]
  RHS range        [1e+00, 1e+00]
Presolve removed 2558 rows and 47 columns
Presolve time: 0.00s
Presolved: 67 rows, 578 columns, 193 nonzeros
Variable types: 0 continuous, 578 integer (578 binary)

Root relaxation: objective 4.680000e+02, 64 iterations, 0.00 seconds (0.00 work units)

    Nodes    |    Current Node    |     Objective Bounds      |     Work
 Expl Unexpl |  Obj  Depth IntInf | Incumbent    BestBd   Gap | It/Node Time

     0     0  468.00000    0    3          -  468.00000      -     -    4s
     0     0  661.00000    0    -          -  661.00000      -     -    8s
     0     0  664.00000    0    -          -  664.00000      -     -    9s
     0     0  664.00000    0    -          -  664.00000      -     -   10s
     0     0  664.00000    0    -          -  664.00000      -     -   10s
     0     0  664.00000    0    -          -  664.00000      -     -   11s
     0     0  665.00000    0    -          -  665.00000      -     -   12s
     0     0  665.00000    0    -          -  665.00000      -     -   13s
     0     0  665.00000    0    -          -  665.00000      -     -   14s
     0     0  665.00000    0    -          -  665.00000      -     -   15s
     0     0  665.00000    0    -          -  665.00000      -     -   15s
     0     0  665.00000    0    -          -  665.00000      -     -   16s
     0     0  665.00000    0    -          -  665.00000      -     -   17s
     0     0  665.00000    0    -          -  665.00000      -     -   18s
     0     0  665.00000    0    -          -  665.00000      -     -   19s
     0     0  665.00000    0    -          -  665.00000      -     -   20s
H    0     0                    1330.0000000  665.14286  50.0%     -   21s
     0     0  665.14286    0    7 1330.00000  665.14286  50.0%     -   21s
     0     0  737.00000    0    - 1330.00000  737.00000  44.6%     -   30s
     0     0  741.00000    0    - 1330.00000  741.00000  44.3%     -   31s
     0     0  741.00000    0    - 1330.00000  741.00000  44.3%     -   32s
     0     0  741.00000    0    - 1330.00000  741.00000  44.3%     -   32s
     0     0  741.00000    0    - 1330.00000  741.00000  44.3%     -   33s
     0     0  742.00000    0    - 1330.00000  742.00000  44.2%     -   34s
H    0     0                    1325.0000000  742.00000  44.0%     -   35s
     0     0  742.00000    0    4 1325.00000  742.00000  44.0%     -   35s
     0     0  787.00000    0    - 1325.00000  787.00000  40.6%     -   41s
     0     0  787.00000    0    - 1325.00000  787.00000  40.6%     -   42s
     0     0  787.00000    0    - 1325.00000  787.00000  40.6%     -   43s
     0     0  788.00000    0    - 1325.00000  788.00000  40.5%     -   44s
     0     0  789.00000    0    - 1325.00000  789.00000  40.5%     -   45s
     0     0  791.00000    0    - 1325.00000  791.00000  40.3%     -   46s
     0     0  791.00000    0    - 1325.00000  791.00000  40.3%     -   47s
     0     0  791.00000    0    - 1325.00000  791.00000  40.3%     -   47s
     0     0  791.00000    0    - 1325.00000  791.00000  40.3%     -   48s
     0     0  791.00000    0    - 1325.00000  791.00000  40.3%     -   49s
     0     0  791.00000    0    - 1325.00000  791.00000  40.3%     -   50s
     0     0  791.00000    0    - 1325.00000  791.00000  40.3%     -   51s
     0     0  791.00000    0    - 1325.00000  791.00000  40.3%     -   52s
     0     0  791.00000    0    - 1325.00000  791.00000  40.3%     -   53s
     0     0  791.00000    0    - 1325.00000  791.00000  40.3%     -   54s
     0     0  791.00000    0    - 1325.00000  791.00000  40.3%     -   54s
     0     0  791.00000    0    - 1325.00000  791.00000  40.3%     -   55s
H    0     0                    1249.0000000  791.00000  36.7%     -   56s
     0     0  791.00000    0    8 1249.00000  791.00000  36.7%     -   56s
H    0     0                    1246.0000000  815.50000  34.6%     -   58s
     0     0  815.50000    0    5 1246.00000  815.50000  34.6%     -   58s
H    0     0                    1227.0000000  815.50000  33.5%     -   60s
     0     0  815.50000    0    5 1227.00000  815.50000  33.5%     -   77s
     0     2  840.50000    0    7 1227.00000  840.50000  31.5%     -   78s
     7     6  884.73529    2   16 1227.00000  879.40000  28.3%  82.7   87s
    11    12  889.20000    3   14 1227.00000  885.81818  27.8%  82.2   91s
    19    20  889.12500    4   21 1227.00000  889.12500  27.5%  63.4   96s
    29    32  889.12500    7   12 1227.00000  889.12500  27.5%  44.6  102s
    35    59  889.20000    8    9 1227.00000  889.12500  27.5%  39.0  106s
    62    89  889.40000   17   11 1227.00000  889.12500  27.5%  25.9  120s
    96   119  889.66667   25    7 1227.00000  889.12500  27.5%  20.6  141s
   132   148  889.87500   29   15 1227.00000  889.12500  27.5%  18.5  160s
   165   192  890.21429   35   18 1227.00000  889.12500  27.5%  17.1  178s
   217   235  890.50495   42   15 1227.00000  889.12500  27.5%  14.9  203s
   260   271  890.66667   56    7 1227.00000  889.12500  27.5%  13.7  224s
H  272   272                    1218.0000000  889.12500  27.0%  13.4  232s
H  281   273                    1208.0000000  889.12500  26.4%  13.2  237s
H  290   273                    1206.0000000  889.12500  26.3%  13.1  242s
   301   334  891.50000   70    3 1206.00000  889.12500  26.3%  13.0  249s
H  336   334                    1205.0000000  889.12500  26.2%  12.5  268s
H  359   335                    1204.0000000  889.12500  26.2%  12.1  283s
   364   395  891.75000   84    8 1204.00000  889.12500  26.2%  12.0  286s
   425   465  892.25000  104    9 1204.00000  889.12500  26.2%  11.0  315s
H  465   470                    1193.0000000  889.12500  25.5%  10.7  339s
   522   571  893.65217  122   13 1193.00000  889.12500  25.5%  10.2  367s
   624   629  895.50000  138    5 1193.00000  889.12500  25.5%   9.7  424s
   689   698  896.00000  156   12 1193.00000  889.12500  25.5%   9.5  458s
   779   707  896.00000  122    5 1193.00000  889.12500  25.5%   9.1  503s
   783   710  892.75000  116   14 1193.00000  889.12500  25.5%   9.1  507s
   785   711  894.92710   11   31 1193.00000  894.92710  25.0%   9.0  511s
   786   712  898.99612   24   27 1193.00000  898.99612  24.6%   9.0  519s
   787   712  902.10386  124   28 1193.00000  902.10386  24.4%   9.0  528s
   788   713  905.13099   45   32 1193.00000  905.13099  24.1%   9.0  530s
   792   716  913.33666  106   40 1193.00000  913.33666  23.4%   9.0  535s
   796   718  917.02498   66   35 1193.00000  917.02498  23.1%   8.9  548s
   799   725  920.68699   11   32 1193.00000  919.19440  23.0%  10.7  550s
   807   731  923.32223   12   39 1193.00000  920.72306  22.8%  11.5  556s
   811   733  924.05888   13   47 1193.00000  922.24473  22.7%  12.1  561s
   819   739  925.79889   14   52 1193.00000  923.27180  22.6%  13.3  566s
   823   741  928.18183   14   46 1193.00000  923.27180  22.6%  13.9  570s
   831   747  932.52698   15   57 1193.00000  923.27180  22.6%  15.7  576s
   839   752  936.49014   16   62 1193.00000  923.27180  22.6%  17.0  582s
   843   755  938.61049   17   58 1193.00000  923.27180  22.6%  17.8  587s
   847   757  941.96752   17   57 1193.00000  923.27180  22.6%  18.7  591s
H  850   756                    1155.0000000  923.27180  20.1%  19.1  594s
   851   760  945.17452   18   51 1155.00000  923.27180  20.1%  19.5  595s
   855   763  946.67244   18   54 1155.00000  923.27180  20.1%  20.4  600s

Cutting planes:
  User: 89
  Gomory: 2
  Flow cover: 2
  Zero half: 2
  Lazy constraints: 64

Explored 859 nodes (18536 simplex iterations) in 602.70 seconds (1.54 work units)
Thread count was 4 (of 4 available processors)

Solution count 10: 1155 1193 1204 ... 1249

Time limit reached
Best objective 1.155000000000e+03, best bound 9.240000000000e+02, gap 20.0000%

User-callback calls 2883, time in user-callback 600.77 sec
